Cs3 Bi2 I9
1.0
8.729961 0.000000 0.000000
-4.364981 7.560368 0.000000
0.000000 0.000000 10.816469
Cs Bi I
3 2 9
direct
0.000000 0.000000 0.000000 Cs
0.333333 0.666667 0.325324 Cs
0.666667 0.333333 0.674676 Cs
0.333333 0.666667 0.807518 Bi
0.666667 0.333333 0.192482 Bi
0.000000 0.500000 0.000000 I
0.500000 0.000000 0.000000 I
0.500000 0.500000 0.000000 I
0.165024 0.834976 0.662466 I
0.669951 0.834976 0.662466 I
0.165024 0.330049 0.662466 I
0.834976 0.165024 0.337534 I
0.330049 0.165024 0.337534 I
0.834976 0.669951 0.337534 I
